%SETS
JOBS     = 1..50;
MACHINES = 1..5;
SPEED    = 5;

time        = array3d(JOBS,MACHINES,1..SPEED,[26, 9, 6, 5, 4, 14, 5, 3, 3, 2, 57, 19, 14, 11, 10, 85, 29, 21, 17, 15, 12, 4, 3, 2, 2, 40, 14, 9, 8, 7, 19, 6, 4, 3, 3, 21, 7, 5, 4, 3, 67, 23, 16, 13, 12, 1, 1, 1, 1, 1, 2, 1, 1, 1, 1, 1, 1, 1, 1, 1, 46, 15, 11, 9, 8, 38, 13, 9, 7, 7, 52, 18, 12, 10, 9, 99, 34, 24, 20, 17, 41, 14, 10, 8, 7, 16, 5, 3, 3, 2, 39, 13, 9, 7, 7, 3, 1, 1, 1, 1, 26, 9, 6, 5, 4, 4, 1, 1, 1, 1, 74, 25, 18, 15, 13, 19, 6, 4, 3, 3, 13, 4, 3, 2, 2, 7, 2, 1, 1, 1, 38, 13, 9, 7, 6, 15, 5, 3, 3, 2, 21, 7, 5, 4, 3, 1, 1, 1, 1, 1, 24, 8, 6, 5, 4, 24, 8, 6, 4, 4, 24, 8, 6, 5, 4, 74, 25, 18, 15, 13, 29, 10, 7, 6, 5, 11, 3, 2, 2, 2, 14, 5, 3, 3, 2, 30, 10, 7, 6, 5, 1, 1, 1, 1, 1, 28, 9, 6, 5, 5, 28, 9, 7, 5, 5, 6, 2, 1, 1, 1, 3, 1, 1, 1, 1, 9, 3, 2, 1, 1, 11, 4, 2, 2, 2, 21, 7, 5, 4, 3, 14, 5, 3, 3, 2, 115, 39, 28, 23, 20, 2, 1, 1, 1, 1, 6, 2, 1, 1, 1, 4, 1, 1, 1, 1, 27, 9, 6, 5, 4, 7, 2, 1, 1, 1, 16, 5, 3, 3, 2, 7, 2, 1, 1, 1, 4, 1, 1, 1, 1, 3, 1, 1, 1, 1, 27, 9, 6, 5, 4, 3, 1, 1, 1, 1, 5, 1, 1, 1, 1, 11, 4, 2, 2, 2, 44, 15, 10, 9, 8, 2, 1, 1, 1, 1, 47, 16, 11, 9, 8, 2, 1, 1, 1, 1, 97, 33, 23, 19, 17, 16, 5, 4, 3, 2, 97, 33, 23, 19, 17, 24, 8, 5, 4, 4, 34, 12, 8, 7, 6, 1, 1, 1, 1, 1, 8, 2, 2, 1, 1, 3, 1, 1, 1, 1, 9, 3, 2, 1, 1, 3, 1, 1, 1, 1, 9, 3, 2, 2, 1, 13, 4, 3, 2, 2, 1, 1, 1, 1, 1, 30, 10, 7, 6, 5, 21, 7, 5, 4, 3, 7, 2, 1, 1, 1, 19, 6, 4, 3, 3, 2, 1, 1, 1, 1, 22, 7, 5, 4, 3, 68, 23, 16, 13, 12, 9, 3, 2, 2, 1, 28, 9, 6, 5, 5, 3, 1, 1, 1, 1, 32, 11, 7, 6, 5, 8, 3, 2, 1, 1, 5, 1, 1, 1, 1, 22, 7, 5, 4, 4, 1, 1, 1, 1, 1, 45, 15, 11, 9, 8, 1, 1, 1, 1, 1, 29, 10, 7, 5, 5, 8, 2, 1, 1, 1, 34, 11, 8, 6, 6, 84, 29, 20, 17, 15, 7, 2, 1, 1, 1, 22, 7, 5, 4, 3, 23, 8, 5, 4, 4, 21, 7, 5, 4, 3, 6, 2, 1, 1, 1, 78, 27, 19, 16, 14, 15, 5, 3, 3, 2, 48, 16, 11, 9, 8, 31, 10, 7, 6, 5, 9, 3, 2, 1, 1, 43, 15, 10, 8, 7, 13, 4, 3, 2, 2, 55, 19, 13, 11, 9, 22, 7, 5, 4, 4, 55, 19, 13, 11, 9, 30, 10, 7, 6, 5, 33, 11, 8, 6, 6, 18, 6, 4, 3, 3, 80, 27, 19, 16, 14, 26, 9, 6, 5, 4, 14, 4, 3, 2, 2, 24, 8, 5, 4, 4, 1, 1, 1, 1, 1, 9, 3, 2, 1, 1, 27, 9, 6, 5, 5, 8, 3, 2, 1, 1, 24, 8, 6, 5, 4, 14, 5, 3, 2, 2, 3, 1, 1, 1, 1, 9, 3, 2, 1, 1, 21, 7, 5, 4, 3, 23, 7, 5, 4, 4, 22, 7, 5, 4, 3, 27, 9, 6, 5, 4, 27, 9, 6, 5, 4, 14, 5, 3, 2, 2, 58, 20, 14, 11, 10, 11, 4, 2, 2, 2, 14, 5, 3, 3, 2, 57, 19, 14, 11, 10, 42, 14, 10, 8, 7, 31, 10, 7, 6, 5, 2, 1, 1, 1, 1, 65, 22, 15, 13, 11, 32, 11, 7, 6, 5, 175, 60, 42, 35, 31, 4, 1, 1, 1, 1, 52, 18, 12, 10, 9, 4, 1, 1, 1, 1, 24, 8, 6, 5, 4, 3, 1, 1, 1, 1, 48, 16, 11, 9, 8, 42, 14, 10, 8, 7, 21, 7, 5, 4, 3, 13, 4, 3, 2, 2, 1, 1, 1, 1, 1, 30, 10, 7, 6, 5, 15, 5, 3, 3, 2, 33, 11, 8, 6, 5, 52, 17, 12, 10, 9, 96, 33, 23, 19, 17, 50, 17, 12, 10, 9, 1, 1, 1, 1, 1, 11, 3, 2, 2, 2, 33, 11, 8, 6, 6, 4, 1, 1, 1, 1, 19, 6, 4, 3, 3, 1, 1, 1, 1, 1, 5, 1, 1, 1, 1, 1, 1, 1, 1, 1, 40, 14, 10, 8, 7, 6, 2, 1, 1, 1, 10, 3, 2, 2, 1, 68, 23, 16, 13, 12, 31, 10, 7, 6, 5, 1, 1, 1, 1, 1, 4, 1, 1, 1, 1, 25, 8, 6, 5, 4, 22, 7, 5, 4, 4, 7, 2, 1, 1, 1, 70, 24, 17, 14, 12, 24, 8, 6, 5, 4, 19, 6, 4, 4, 3, 23, 7, 5, 4, 4, 33, 11, 8, 6, 6, 9, 3, 2, 1, 1, 13, 4, 3, 2, 2, 6, 2, 1, 1, 1, 5, 1, 1, 1, 1, 74, 25, 18, 15, 13, 34, 12, 8, 7, 6, 17, 6, 4, 3, 3, 6, 2, 1, 1, 1, 7, 2, 1, 1, 1, 1, 1, 1, 1, 1, 14, 5, 3, 2, 2, 9, 3, 2, 1, 1, 30, 10, 7, 6, 5, 12, 4, 3, 2, 2, 5, 1, 1, 1, 1, 1, 1, 1, 1, 1, 1, 1, 1, 1, 1, 29, 10, 7, 5, 5, 15, 5, 3, 3, 2, 19, 6, 4, 4, 3, 58, 20, 14, 11, 10, 120, 41, 29, 24, 21, 6, 2, 1, 1, 1, 28, 9, 6, 5, 5, 7, 2, 1, 1, 1, 1, 1, 1, 1, 1, 36, 12, 9, 7, 6, 9, 3, 2, 2, 1, 12, 4, 3, 2, 2, 22, 7, 5, 4, 4, 46, 15, 11, 9, 8, 25, 8, 6, 5, 4, 53, 18, 13, 10, 9, 8, 2, 2, 1, 1, 41, 14, 10, 8, 7, 5, 1, 1, 1, 1, 79, 27, 19, 16, 14, 30, 10, 7, 6, 5, 6, 2, 1, 1, 1, 76, 26, 18, 15, 13, 33, 11, 8, 6, 6, 7, 2, 1, 1, 1, 6, 2, 1, 1, 1, 18, 6, 4, 3, 3, 1, 1, 1, 1, 1, 6, 2, 1, 1, 1, 14, 4, 3, 2, 2, 12, 4, 2, 2, 2, 16, 5, 3, 3, 2, 8, 2, 2, 1, 1, 22, 7, 5, 4, 4, 51, 17, 12, 10, 9, 3, 1, 1, 1, 1, 18, 6, 4, 3, 3, 3, 1, 1, 1, 1, 32, 11, 7, 6, 5, 13, 4, 3, 2, 2, 21, 7, 5, 4, 3, 5, 1, 1, 1, 1, 4, 1, 1, 1, 1, 17, 5, 4, 3, 3, 11, 3, 2, 2, 2, 72, 25, 17, 14, 13, 37, 12, 9, 7, 6, 35, 12, 8, 7, 6, 60, 20, 14, 12, 10]);
energy      = array3d(JOBS,MACHINES,1..SPEED,[77, 91, 94, 95, 96, 86, 95, 97, 97, 98, 56, 82, 86, 89, 90, 42, 74, 81, 84, 86, 88, 96, 97, 98, 98, 67, 86, 91, 92, 93, 82, 94, 96, 97, 97, 81, 93, 95, 96, 97, 51, 79, 85, 87, 88, 99, 99, 99, 99, 99, 98, 99, 99, 99, 99, 99, 99, 99, 99, 99, 63, 86, 89, 91, 92, 68, 87, 91, 93, 93, 59, 83, 88, 90, 91, 37, 71, 78, 81, 84, 66, 86, 90, 92, 93, 85, 95, 97, 97, 98, 67, 87, 91, 93, 93, 97, 99, 99, 99, 99, 77, 91, 94, 95, 96, 96, 99, 99, 99, 99, 47, 77, 83, 86, 87, 82, 94, 96, 97, 97, 87, 96, 97, 98, 98, 93, 98, 99, 99, 99, 68, 87, 91, 93, 94, 86, 95, 97, 97, 98, 81, 93, 95, 96, 97, 99, 99, 99, 99, 99, 78, 92, 94, 95, 96, 78, 92, 94, 96, 96, 78, 92, 94, 95, 96, 47, 77, 83, 86, 87, 74, 90, 93, 94, 95, 89, 97, 98, 98, 98, 86, 95, 97, 97, 98, 74, 90, 93, 94, 95, 99, 99, 99, 99, 99, 75, 91, 94, 95, 95, 75, 91, 93, 95, 95, 94, 98, 99, 99, 99, 97, 99, 99, 99, 99, 91, 97, 98, 99, 99, 89, 96, 98, 98, 98, 81, 93, 95, 96, 97, 86, 95, 97, 97, 98, 31, 67, 75, 79, 81, 98, 99, 99, 99, 99, 94, 98, 99, 99, 99, 96, 99, 99, 99, 99, 76, 91, 94, 95, 96, 93, 98, 99, 99, 99, 85, 95, 97, 97, 98, 93, 98, 99, 99, 99, 96, 99, 99, 99, 99, 97, 99, 99, 99, 99, 76, 91, 94, 95, 96, 97, 99, 99, 99, 99, 95, 99, 99, 99, 99, 89, 96, 98, 98, 98, 64, 86, 90, 91, 92, 98, 99, 99, 99, 99, 62, 85, 89, 91, 92, 98, 99, 99, 99, 99, 37, 71, 79, 82, 84, 85, 95, 96, 97, 98, 37, 71, 79, 82, 84, 78, 92, 95, 96, 96, 71, 88, 92, 93, 94, 99, 99, 99, 99, 99, 92, 98, 98, 99, 99, 97, 99, 99, 99, 99, 91, 97, 98, 99, 99, 97, 99, 99, 99, 99, 91, 97, 98, 98, 99, 87, 96, 97, 98, 98, 99, 99, 99, 99, 99, 74, 90, 93, 94, 95, 81, 93, 95, 96, 97, 93, 98, 99, 99, 99, 82, 94, 96, 97, 97, 98, 99, 99, 99, 99, 80, 93, 95, 96, 97, 50, 79, 85, 87, 88, 91, 97, 98, 98, 99, 75, 91, 94, 95, 95, 97, 99, 99, 99, 99, 72, 89, 93, 94, 95, 92, 97, 98, 99, 99, 95, 99, 99, 99, 99, 80, 93, 95, 96, 96, 99, 99, 99, 99, 99, 63, 86, 89, 91, 92, 99, 99, 99, 99, 99, 74, 90, 93, 95, 95, 92, 98, 99, 99, 99, 71, 89, 92, 94, 94, 43, 74, 81, 84, 86, 93, 98, 99, 99, 99, 80, 93, 95, 96, 97, 79, 92, 95, 96, 96, 81, 93, 95, 96, 97, 94, 98, 99, 99, 99, 45, 76, 82, 85, 86, 86, 95, 97, 97, 98, 61, 85, 89, 91, 92, 73, 90, 93, 94, 95, 91, 97, 98, 99, 99, 65, 86, 90, 92, 93, 87, 96, 97, 98, 98, 57, 82, 87, 89, 91, 80, 93, 95, 96, 96, 57, 82, 87, 89, 91, 74, 90, 93, 94, 95, 71, 89, 92, 94, 94, 83, 94, 96, 97, 97, 44, 76, 82, 85, 86, 77, 91, 94, 95, 96, 86, 96, 97, 98, 98, 78, 92, 95, 96, 96, 99, 99, 99, 99, 99, 91, 97, 98, 99, 99, 76, 91, 94, 95, 95, 92, 97, 98, 99, 99, 78, 92, 94, 95, 96, 86, 95, 97, 98, 98, 97, 99, 99, 99, 99, 91, 97, 98, 99, 99, 81, 93, 95, 96, 97, 79, 93, 95, 96, 96, 80, 93, 95, 96, 97, 76, 91, 94, 95, 96, 76, 91, 94, 95, 96, 86, 95, 97, 98, 98, 55, 81, 86, 89, 90, 89, 96, 98, 98, 98, 86, 95, 97, 97, 98, 56, 82, 86, 89, 90, 65, 86, 90, 92, 93, 73, 90, 93, 94, 95, 98, 99, 99, 99, 99, 52, 80, 86, 87, 89, 72, 89, 93, 94, 95, 17, 54, 65, 70, 73, 96, 99, 99, 99, 99, 59, 83, 88, 90, 91, 96, 99, 99, 99, 99, 78, 92, 94, 95, 96, 97, 99, 99, 99, 99, 61, 85, 89, 91, 92, 65, 86, 90, 92, 93, 81, 93, 95, 96, 97, 87, 96, 97, 98, 98, 99, 99, 99, 99, 99, 74, 90, 93, 94, 95, 86, 95, 97, 97, 98, 71, 89, 92, 94, 95, 59, 84, 88, 90, 91, 38, 71, 79, 82, 84, 60, 84, 88, 90, 91, 99, 99, 99, 99, 99, 89, 97, 98, 98, 98, 71, 89, 92, 94, 94, 96, 99, 99, 99, 99, 82, 94, 96, 97, 97, 99, 99, 99, 99, 99, 95, 99, 99, 99, 99, 99, 99, 99, 99, 99, 67, 86, 90, 92, 93, 94, 98, 99, 99, 99, 90, 97, 98, 98, 99, 50, 79, 85, 87, 88, 73, 90, 93, 94, 95, 99, 99, 99, 99, 99, 96, 99, 99, 99, 99, 77, 92, 94, 95, 96, 80, 93, 95, 96, 96, 93, 98, 99, 99, 99, 49, 78, 84, 86, 88, 78, 92, 94, 95, 96, 82, 94, 96, 96, 97, 79, 93, 95, 96, 96, 71, 89, 92, 94, 94, 91, 97, 98, 99, 99, 87, 96, 97, 98, 98, 94, 98, 99, 99, 99, 95, 99, 99, 99, 99, 47, 77, 83, 86, 87, 71, 88, 92, 93, 94, 84, 94, 96, 97, 97, 94, 98, 99, 99, 99, 93, 98, 99, 99, 99, 99, 99, 99, 99, 99, 86, 95, 97, 98, 98, 91, 97, 98, 99, 99, 74, 90, 93, 94, 95, 88, 96, 97, 98, 98, 95, 99, 99, 99, 99, 99, 99, 99, 99, 99, 99, 99, 99, 99, 99, 74, 90, 93, 95, 95, 86, 95, 97, 97, 98, 82, 94, 96, 96, 97, 55, 81, 86, 89, 90, 30, 66, 74, 78, 81, 94, 98, 99, 99, 99, 75, 91, 94, 95, 95, 93, 98, 99, 99, 99, 99, 99, 99, 99, 99, 69, 88, 91, 93, 94, 91, 97, 98, 98, 99, 88, 96, 97, 98, 98, 80, 93, 95, 96, 96, 63, 86, 89, 91, 92, 77, 92, 94, 95, 96, 58, 83, 87, 90, 91, 92, 98, 98, 99, 99, 66, 86, 90, 92, 93, 95, 99, 99, 99, 99, 45, 76, 82, 85, 86, 74, 90, 93, 94, 95, 94, 98, 99, 99, 99, 46, 77, 83, 86, 87, 71, 89, 92, 94, 94, 93, 98, 99, 99, 99, 94, 98, 99, 99, 99, 83, 94, 96, 97, 97, 99, 99, 99, 99, 99, 94, 98, 99, 99, 99, 86, 96, 97, 98, 98, 88, 96, 98, 98, 98, 85, 95, 97, 97, 98, 92, 98, 98, 99, 99, 80, 93, 95, 96, 96, 60, 84, 88, 90, 91, 97, 99, 99, 99, 99, 83, 94, 96, 97, 97, 97, 99, 99, 99, 99, 72, 89, 93, 94, 95, 87, 96, 97, 98, 98, 81, 93, 95, 96, 97, 95, 99, 99, 99, 99, 96, 99, 99, 99, 99, 84, 95, 96, 97, 97, 89, 97, 98, 98, 98, 48, 77, 84, 86, 87, 69, 88, 91, 93, 94, 70, 88, 92, 93, 94, 54, 81, 86, 88, 90]);
precedence  = array2d(JOBS,MACHINES,[1, 4, 0, 2, 3, 2, 3, 4, 0, 1, 1, 2, 3, 0, 4, 2, 0, 1, 4, 3, 1, 2, 3, 4, 0, 1, 4, 0, 3, 2, 2, 1, 0, 3, 4, 2, 0, 3, 4, 1, 2, 1, 4, 0, 3, 1, 3, 2, 4, 0, 1, 2, 4, 3, 0, 4, 3, 0, 1, 2, 0, 4, 3, 1, 2, 2, 1, 3, 4, 0, 4, 1, 3, 0, 2, 4, 0, 3, 1, 2, 3, 0, 4, 2, 1, 0, 4, 1, 3, 2, 1, 4, 2, 0, 3, 1, 0, 3, 4, 2, 1, 4, 2, 0, 3, 0, 4, 3, 1, 2, 4, 1, 3, 0, 2, 3, 0, 4, 2, 1, 0, 4, 3, 1, 2, 2, 0, 4, 3, 1, 2, 1, 3, 0, 4, 1, 3, 2, 4, 0, 3, 0, 1, 4, 2, 0, 3, 2, 4, 1, 1, 4, 3, 0, 2, 1, 2, 3, 4, 0, 0, 3, 1, 2, 4, 3, 2, 1, 0, 4, 2, 3, 1, 4, 0, 2, 3, 0, 4, 1, 3, 2, 0, 1, 4, 3, 2, 1, 0, 4, 3, 4, 1, 2, 0, 4, 1, 2, 3, 0, 3, 2, 0, 4, 1, 0, 3, 1, 2, 4, 0, 1, 3, 2, 4, 3, 0, 2, 4, 1, 2, 3, 1, 0, 4, 2, 4, 1, 0, 3, 1, 4, 2, 3, 0, 4, 2, 3, 0, 1, 4, 3, 1, 0, 2, 2, 3, 0, 4, 1]);
releaseDate = array2d(JOBS,MACHINES,[67, 115, 50, 73, 112, 33, 56, 64, 0, 31, 10, 11, 12, 0, 30, 113, 100, 110, 151, 150, 33, 39, 40, 63, 30, 105, 113, 100, 107, 106, 25, 19, 10, 31, 49, 115, 100, 117, 126, 106, 93, 92, 107, 90, 105, 91, 126, 96, 129, 90, 62, 63, 73, 70, 60, 70, 68, 60, 66, 67, 70, 97, 94, 72, 93, 108, 99, 137, 174, 80, 86, 82, 85, 80, 84, 86, 70, 85, 73, 80, 33, 0, 34, 28, 6, 80, 98, 82, 90, 84, 79, 82, 80, 60, 81, 81, 80, 90, 100, 89, 91, 129, 97, 90, 108, 80, 105, 96, 83, 85, 77, 45, 69, 30, 61, 78, 60, 97, 70, 67, 10, 39, 32, 18, 27, 79, 70, 87, 85, 73, 53, 48, 60, 40, 72, 103, 123, 120, 125, 90, 135, 20, 21, 148, 39, 0, 3, 2, 21, 1, 83, 108, 102, 80, 100, 51, 66, 69, 79, 20, 70, 113, 102, 105, 114, 83, 82, 81, 80, 93, 69, 70, 41, 72, 40, 72, 74, 40, 86, 49, 39, 34, 10, 16, 52, 90, 89, 88, 70, 97, 66, 71, 64, 65, 60, 113, 91, 106, 111, 90, 73, 63, 40, 74, 43, 10, 56, 42, 55, 57, 50, 70, 78, 72, 82, 119, 90, 110, 126, 109, 108, 138, 107, 70, 146, 17, 20, 11, 10, 19, 35, 48, 39, 45, 30, 65, 59, 60, 50, 52, 82, 76, 71, 70, 72, 55, 57, 30, 78, 39]);
dueDate     = array2d(JOBS,MACHINES,[73, 119, 67, 112, 115, 56, 64, 72, 31, 33, 11, 12, 30, 10, 42, 150, 110, 113, 162, 151, 39, 40, 63, 68, 33, 106, 122, 105, 113, 107, 31, 25, 19, 49, 63, 117, 106, 126, 128, 115, 105, 93, 108, 92, 107, 96, 129, 126, 130, 91, 63, 70, 74, 73, 62, 71, 70, 66, 67, 68, 72, 107, 97, 93, 94, 137, 108, 174, 182, 99, 87, 84, 86, 82, 85, 89, 73, 86, 80, 85, 34, 6, 35, 33, 28, 82, 104, 84, 98, 90, 80, 87, 81, 79, 82, 89, 81, 100, 124, 90, 97, 135, 108, 91, 129, 83, 128, 105, 85, 96, 80, 61, 77, 45, 69, 97, 67, 125, 78, 70, 18, 40, 39, 27, 32, 85, 73, 88, 87, 79, 60, 53, 72, 48, 75, 120, 125, 123, 141, 103, 148, 21, 39, 155, 135, 1, 21, 3, 29, 2, 100, 119, 108, 83, 102, 66, 69, 79, 91, 51, 102, 114, 105, 113, 115, 93, 83, 82, 81, 103, 70, 72, 69, 81, 41, 74, 86, 49, 87, 72, 52, 39, 16, 34, 55, 97, 90, 89, 88, 106, 71, 72, 65, 66, 64, 116, 106, 111, 113, 91, 74, 73, 43, 85, 63, 42, 57, 55, 56, 58, 70, 72, 82, 78, 95, 126, 109, 119, 142, 110, 138, 146, 108, 107, 154, 19, 21, 17, 11, 20, 39, 50, 45, 48, 35, 79, 60, 65, 52, 59, 90, 82, 72, 71, 76, 57, 78, 39, 90, 55]);